SCIP Status        : solving was interrupted [time limit reached]
Total Time         :    3600.00
  solving          :    3600.00
  presolving       :       0.27 (included in solving)
  reading          :       0.00
  copying          :       0.58 (21 #copies) (minimal 0.00, maximal 0.05, average 0.03)
Original Problem   :
  Problem name     : bbbenchmark/g05_80.3.cut
  Variables        : 81 (80 binary, 0 integer, 0 implicit integer, 1 continuous)
  Constraints      : 1 initial, 1 maximal
  Objective        : minimize, 1 non-zeros (abs.min = 1, abs.max = 1)
Presolved Problem  :
  Problem name     : t_bbbenchmark/g05_80.3.cut
  Variables        : 1612 (80 binary, 0 integer, 1530 implicit integer, 2 continuous)
  Constraints      : 1534 initial, 5205 maximal
  Objective        : minimize, 1 non-zeros (abs.min = 1, abs.max = 1)
  Nonzeros         : 6307 constraint, 162 clique table
Presolvers         :   ExecTime  SetupTime  Calls  FixedVars   AggrVars   ChgTypes  ChgBounds   AddHoles    DelCons    AddCons   ChgSides   ChgCoefs
  boundshift       :       0.00       0.00      0          0          0          0          0          0          0          0          0          0
  convertinttobin  :       0.00       0.00      0          0          0          0          0          0          0          0          0          0
  domcol           :       0.00       0.00      1          0          0          0          0          0          0          0          0          0
  dualagg          :       0.00       0.00      0          0          0          0          0          0          0          0          0          0
  dualcomp         :       0.00       0.00      1          0          0          0          0          0          0          0          0          0
  dualinfer        :       0.00       0.00      0          0          0          0          0          0          0          0          0          0
  dualsparsify     :       0.00       0.00      1          0          0          0          0          0          0          0          0          0
  gateextraction   :       0.00       0.00      0          0          0          0          0          0          0          0          0          0
  implics          :       0.00       0.00      2          0          0          0          0          0          0          0          0          0
  inttobinary      :       0.00       0.00      0          0          0          0          0          0          0          0          0          0
  qpkktref         :       0.00       0.00      0          0          0          0          0          0          0          0          0          0
  redvub           :       0.00       0.00      0          0          0          0          0          0          0          0          0          0
  sparsify         :       0.00       0.00      1          0          0          0          0          0          0          0          0          0
  stuffing         :       0.00       0.00      0          0          0          0          0          0          0          0          0          0
  trivial          :       0.00       0.00      4          0          0          0          0          0          0          0          0          0
  tworowbnd        :       0.00       0.00      0          0          0          0          0          0          0          0          0          0
  dualfix          :       0.00       0.00      4          0          0          0          0          0          0          0          0          0
  genvbounds       :       0.00       0.00      0          0          0          0          0          0          0          0          0          0
  probing          :       0.11       0.00      1          0          0          0          0          0          0          0          0          0
  pseudoobj        :       0.00       0.00      1          0          0          0          1          0          0          0          0          0
  symmetry         :       0.00       0.00      0          0          0          0          0          0          0          0          0          0
  vbounds          :       0.00       0.00      1          0          0          0          0          0          0          0          0          0
  varbound         :       0.00       0.00      2          0          0          0          0          0          0          0          0          0
  and              :       0.00       0.01      2          0          0          0          0          0          0          0          0          0
  linear           :       0.00       0.00      2          0          0          0          0          0          0          0          0          0
  logicor          :       0.00       0.00      0          0          0          0          0          0          0          0          0          0
  bounddisjunction :       0.00       0.00      0          0          0          0          0          0          0          0          0          0
  nonlinear        :       0.15       0.00      5          0          0          0          1          0          0       1533          0          0
  benders          :       0.00       0.00      0          0          0          0          0          0          0          0          0          0
  components       :       0.00       0.00      1          0          0          0          0          0          0          0          0          0
  root node        :          -          -      -          0          -          -         27          -          -          -          -          -
Constraints        :     Number  MaxNumber  #Separate #Propagate    #EnfoLP    #EnfoRelax  #EnfoPS    #Check   #ResProp    Cutoffs    DomReds       Cuts    Applied      Conss   Children
  benderslp        :          0          0          0          0      55557          0          0       3345          0          0          0          0          0          0          0
  integral         :          0          0          0          0      55557          0          0       3345          0          0       1928          0          0       1364     108722
  varbound         :          1          1        164      41093          0          0          0         32          0          0        584          0          0          0          0
  and              :       1530       1530      69271     404909         19          0          0         32     131529          0    1815211      10063       9762          0          0
  linear           :          3+         6        164     404914         19          0          0         30          3          0      42800          0          0          0          0
  logicor          :          0+      3671          0     106251          0          0          0          0         75        293         41          0          0          0          0
  bounddisjunction :          0+        20          0       1771          0          0          0          0          0          1          0          0          0          0          0
  benders          :          0          0          0          0         19          0          0         33          0          0          0          0          0          0          0
  countsols        :          0          0          0          0         19          0          0         33          0          0          0          0          0          0          0
  components       :          0          0          0          0          0          0          0          0          0          0          0          0          0          0          0
Constraint Timings :  TotalTime  SetupTime   Separate  Propagate     EnfoLP     EnfoPS     EnfoRelax   Check    ResProp    SB-Prop
  benderslp        :       0.06       0.00       0.00       0.00       0.06       0.00       0.00       0.00       0.00       0.00
  integral         :      48.34       0.00       0.00       0.00      48.33       0.00       0.00       0.01       0.00       0.00
  varbound         :       0.05       0.00       0.01       0.04       0.00       0.00       0.00       0.00       0.00       0.00
  and              :      55.48       0.01      34.60      20.27       0.00       0.00       0.00       0.01       0.21       0.38
  linear           :       0.85       0.00       0.02       0.82       0.00       0.00       0.00       0.00       0.00       0.01
  logicor          :       3.70       0.00       0.00       3.69       0.00       0.00       0.00       0.00       0.00       0.01
  bounddisjunction :       0.00       0.00       0.00       0.00       0.00       0.00       0.00       0.00       0.00       0.00
  benders          :       0.00       0.00       0.00       0.00       0.00       0.00       0.00       0.00       0.00       0.00
  countsols        :       0.00       0.00       0.00       0.00       0.00       0.00       0.00       0.00       0.00       0.00
  components       :       0.15       0.00       0.00       0.15       0.00       0.00       0.00       0.00       0.00       0.00
Propagators        : #Propagate   #ResProp    Cutoffs    DomReds
  dualfix          :          2          0          0          0
  genvbounds       :          0          0          0          0
  nlobbt           :          0          0          0          0
  obbt             :          0          0          0          0
  probing          :          0          0          0          0
  pseudoobj        :     264087          0          0         28
  redcost          :     140505          0          0     102845
  rootredcost      :         27          0          0          0
  symmetry         :          0          0          0          0
  vbounds          :      40757          0          0          0
Propagator Timings :  TotalTime  SetupTime   Presolve  Propagate    ResProp    SB-Prop
  dualfix          :       0.00       0.00       0.00       0.00       0.00       0.00
  genvbounds       :       0.24       0.00       0.00       0.24       0.00       0.00
  nlobbt           :       0.00       0.00       0.00       0.00       0.00       0.00
  obbt             :       0.00       0.00       0.00       0.00       0.00       0.00
  probing          :       0.11       0.00       0.11       0.00       0.00       0.00
  pseudoobj        :       0.53       0.00       0.00       0.53       0.00       0.00
  redcost          :       8.50       0.00       0.00       8.50       0.00       0.00
  rootredcost      :       0.34       0.00       0.00       0.34       0.00       0.00
  symmetry         :       0.23       0.00       0.00       0.22       0.00       0.01
  vbounds          :       0.38       0.00       0.00       0.38       0.00       0.00
Conflict Analysis  :       Time      Calls    Success    DomReds  Conflicts   Literals    Reconvs ReconvLits   Dualrays   Nonzeros   LP Iters   (pool size: [10000,10000])
  propagation      :       0.00        294        222          -        239       45.1          0        0.0          -          -          -
  infeasible LP    :       0.00          1          1          -         39      128.7          0        0.0          3      122.3          0
  bound exceed. LP :      10.37       5931       3639          -      45503       67.2          0        0.0          0        0.0      20866
  strong branching :       0.00          0          0          -          0        0.0          0        0.0          -          -          0
  pseudo solution  :       0.00          0          0          -          0        0.0          0        0.0          -          -          -
  applied globally :       0.17          -          -          0      13279       73.6          -          -          3          -          -
  applied locally  :          -          -          -          0          0        0.0          -          -          0          -          -
Separators         :   ExecTime  SetupTime      Calls  RootCalls    Cutoffs    DomReds  FoundCuts ViaPoolAdd  DirectAdd    Applied ViaPoolApp  DirectApp      Conss
  cut pool         :       3.67          -      16856        195          -          -      35154     637627          -          -          -          -          -    (maximal pool size:       2274)
  aggregation      :     420.16       0.00       5077        164          0          0        113        292          0         77         77          0          0
  > cmir           :          -          -          -          -          -          -          -        292          0         77         77          0          -
  > flowcover      :          -          -          -          -          -          -          -          0          0          0          0          0          -
  > knapsackcover  :          -          -          -          -          -          -          -          0          0          0          0          0          -
  cgmip            :       0.00       0.00          0          0          0          0          0          0          0          0          0          0          0
  clique           :       0.00       0.00        164        164          0          0          0          0          0          0          0          0          0
  closecuts        :       0.00       0.00          0          0          0          0          0          0          0          0          0          0          0
  convexproj       :       0.00       0.00          0          0          0          0          0          0          0          0          0          0          0
  disjunctive      :       0.00       0.00          0          0          0          0          0          0          0          0          0          0          0
  eccuts           :       0.00       0.00          0          0          0          0          0          0          0          0          0          0          0
  gauge            :       0.00       0.00          0          0          0          0          0          0          0          0          0          0          0
  gomory           :       0.00       0.00          0          0          0          0          0          0          0          0          0          0          0
  > gomorymi       :          -          -          -          -          -          -          -          0          0          0          0          0          -
  > strongcg       :          -          -          -          -          -          -          -          0          0          0          0          0          -
  impliedbounds    :       0.32       0.00       5077        164          0          0          0          0          0          0          0          0          0
  interlattice     :       0.13       0.00         80         80          0          0         80          0         80         80          0         80          0
  interminor       :       0.00       0.00          0          0          0          0          0          0          0          0          0          0          0
  intersub         :       0.94       0.00         40         40          0          0         40          0         40         40          0         40          0
  intobj           :       0.00       0.00          0          0          0          0          0          0          0          0          0          0          0
  mcf              :       0.00       0.00          1          1          0          0          0          0          0          0          0          0          0
  minor            :       0.02       0.00          0          0          0          0          0          0          0          0          0          0          0
  mixing           :       0.04       0.00       5082        164          0          0          0          0          0          0          0          0          0
  oddcycle         :       0.00       0.00          0          0          0          0          0          0          0          0          0          0          0
  rapidlearning    :       0.01       0.00          0          0          0          0          0          0          0          0          0          0          0
  rlt              :       0.00       0.00         10         10          0          0          0          0          0          0          0          0          0
  zerohalf         :      41.66       0.00       4598         20          0          0      35041     637335          0     101537     101537          0          0
Cutselectors       :   ExecTime  SetupTime      Calls  RootCalls   Selected     Forced   Filtered  RootSelec   RootForc   RootFilt 
  hybrid           :       0.45       0.00      16519        163     111496          0     536314        315          0         14
Pricers            :   ExecTime  SetupTime      Calls       Vars
  problem variables:       0.00          -          0          0
Branching Rules    :   ExecTime  SetupTime   BranchLP  BranchExt   BranchPS    Cutoffs    DomReds       Cuts      Conss   Children
  allfullstrong    :       0.00       0.00          0          0          0          0          0          0          0          0
  cloud            :       0.00       0.00          0          0          0          0          0          0          0          0
  distribution     :       0.00       0.00          0          0          0          0          0          0          0          0
  fullstrong       :       0.00       0.00          0          0          0          0          0          0          0          0
  inference        :       0.00       0.00          0          0          0          0          0          0          0          0
  leastinf         :       0.00       0.00          0          0          0          0          0          0          0          0
  lookahead        :       0.00       0.00          0          0          0          0          0          0          0          0
  mostinf          :       0.00       0.00          0          0          0          0          0          0          0          0
  multaggr         :       0.00       0.00          0          0          0          0          0          0          0          0
  nodereopt        :       0.00       0.00          0          0          0          0          0          0          0          0
  pscost           :       0.00       0.00          0          0          0          0          0          0          0          0
  random           :       0.00       0.00          0          0          0          0          0          0          0          0
  relpscost        :      48.17       0.00      55538          0          0          0       1928          0       1364     108722
  vanillafullstrong:       0.00       0.00          0          0          0          0          0          0          0          0
Primal Heuristics  :   ExecTime  SetupTime      Calls      Found       Best
  LP solutions     :       0.01          -          -         19         19
  relax solutions  :       0.00          -          -          0          0
  pseudo solutions :       0.00          -          -          0          0
  strong branching :       0.04          -          -          0          0
  actconsdiving    :       0.00       0.00          0          0          0
  adaptivediving   :       4.09       0.00         32          0          0
  alns             :       0.76       0.00         12          0          0
  bound            :       0.00       0.00          0          0          0
  clique           :       0.01       0.00          1          0          0
  coefdiving       :       0.00       0.00          0          0          0
  completesol      :       0.00       0.00          0          0          0
  conflictdiving   :      29.31       0.00        325          0          0
  crossover        :       0.15       0.00          1          0          0
  dins             :       0.00       0.00          0          0          0
  distributiondivin:      50.38       0.00        325          1          1
  dps              :       0.00       0.00          0          0          0
  dualval          :       0.00       0.00          0          0          0
  farkasdiving     :       0.01       0.00          0          0          0
  feaspump         :       0.00       0.00          0          0          0
  fixandinfer      :       0.00       0.00          0          0          0
  fracdiving       :      33.95       0.00        325          0          0
  gins             :       0.15       0.00          0          0          0
  guideddiving     :      30.90       0.00        325          3          3
  indicator        :       0.07       0.00          0          0          0
  indicatordiving  :       0.00       0.00          0          0          0
  intdiving        :       0.00       0.00          0          0          0
  intshifting      :       0.30       0.00         39          0          0
  linesearchdiving :      30.92       0.00        325          0          0
  localbranching   :       0.00       0.00          0          0          0
  locks            :       0.01       0.00          1          0          0
  lpface           :       0.07       0.00          0          0          0
  mpec             :      55.50       0.00         11          0          0
  multistart       :       0.00       0.00          0          0          0
  mutation         :       0.00       0.00          0          0          0
  nlpdiving        :       7.14       0.00          9          0          0
  objpscostdiving  :      81.36       0.00         90         10          2
  octane           :       0.00       0.00          0          0          0
  ofins            :       0.03       0.00          0          0          0
  oneopt           :       0.09       0.00         38          0          0
  padm             :       0.00       0.00          0          0          0
  proximity        :       0.00       0.00          0          0          0
  pscostdiving     :      36.45       0.00        325          1          1
  randrounding     :       0.63       0.00       3308          0          0
  rens             :       0.00       0.00          0          0          0
  reoptsols        :       0.00       0.00          0          0          0
  repair           :       0.00       0.00          0          0          0
  rins             :       5.02       0.00          7          0          0
  rootsoldiving    :      42.53       0.00         45          2          0
  rounding         :       1.05       0.00       3695          0          0
  shiftandpropagate:       0.00       0.00          0          0          0
  shifting         :      55.01       0.00      12402         10         10
  simplerounding   :       0.06       0.00          0          0          0
  subnlp           :     104.65       0.00          0          0          0
  trivial          :       0.01       0.00          2          2          2
  trivialnegation  :       0.00       0.00          0          0          0
  trustregion      :       0.00       0.00          0          0          0
  trysol           :       0.17       0.00          0          0          0
  twoopt           :       0.00       0.00          0          0          0
  undercover       :       0.45       0.00          1          1          1
  vbounds          :       0.00       0.00          0          0          0
  veclendiving     :      30.32       0.00        325          0          0
  zeroobj          :       0.00       0.00          0          0          0
  zirounding       :       0.53       0.00       1000          0          0
  other solutions  :          -          -          -          0          -
Diving (single)    :      Calls      Nodes   LP Iters Backtracks  Conflicts   MinDepth   MaxDepth   AvgDepth  RoundSols  NLeafSols  MinSolDpt  MaxSolDpt  AvgSolDpt
  actconsdiving    :          0          -          -          -          -          -          -          -          -          -          -          -          -
  coefdiving       :          0          -          -          -          -          -          -          -          -          -          -          -          -
  conflictdiving   :        325      10380     255495        343       9367         37         67       48.7          0          -          -          -          -
  distributiondivin:        325       8106     347224        372       3901         33         51       41.6          0          1         46         46       46.0
  farkasdiving     :          0          -          -          -          -          -          -          -          -          -          -          -          -
  fracdiving       :        325      31113     289749        274       2700         46        462      112.6          0          -          -          -          -
  guideddiving     :        325      24953     275880        183       1720         43        271       94.0          0          3         75        102       88.0
  indicatordiving  :          0          -          -          -          -          -          -          -          -          -          -          -          -
  linesearchdiving :        325       8960     285164        366       6337         32         69       44.1          0          -          -          -          -
  pscostdiving     :        325      10670     332330        336       4750         43         62       49.6          0          1         62         62       62.0
  veclendiving     :        325       9312     273390        339      10364         36         60       45.5          0          -          -          -          -
Diving (adaptive)  :      Calls      Nodes   LP Iters Backtracks  Conflicts   MinDepth   MaxDepth   AvgDepth  RoundSols  NLeafSols  MinSolDpt  MaxSolDpt  AvgSolDpt
  actconsdiving    :          8        219       8574          8         80         39         46       42.9          0          -          -          -          -
  coefdiving       :         15        452      14993         15        480         38         58       45.4          0          -          -          -          -
  conflictdiving   :          0          -          -          -          -          -          -          -          -          -          -          -          -
  distributiondivin:          0          -          -          -          -          -          -          -          -          -          -          -          -
  farkasdiving     :          0          -          -          -          -          -          -          -          -          -          -          -          -
  fracdiving       :          2        206       2516          5         46         45        189      117.0          0          -          -          -          -
  guideddiving     :          2        311       1987          0          0        159        182      170.5          0          -          -          -          -
  indicatordiving  :          0          -          -          -          -          -          -          -          -          -          -          -          -
  linesearchdiving :          0          -          -          -          -          -          -          -          -          -          -          -          -
  pscostdiving     :          0          -          -          -          -          -          -          -          -          -          -          -          -
  veclendiving     :          5        152       4321          5        178         38         59       47.0          0          -          -          -          -
Neighborhoods      :      Calls  SetupTime  SolveTime SolveNodes       Sols       Best       Exp3  EpsGreedy        UCB TgtFixRate  Opt  Inf Node Stal  Sol  Usr Othr Actv
  rens             :          2       0.08       0.02          0          0          0    0.00000   -1.00000    0.54530      0.550    0    2    0    0    0    0    0    1
  rins             :          2       0.09       0.08         49          0          0    0.00000   -1.00000    0.47180      0.550    0    2    0    0    0    0    0    1
  mutation         :          2       0.08       0.03          1          0          0    0.00000   -1.00000    0.54386      0.550    0    2    0    0    0    0    0    1
  localbranching   :          1       0.02       0.01          1          0          0    0.00000   -1.00000    0.56306      0.700    0    1    0    0    0    0    0    1
  crossover        :          2       0.12       0.04         25          0          0    0.00000   -1.00000    0.50780      0.550    0    2    0    0    0    0    0    1
  proximity        :          1       0.05       0.01          1          0          0    0.00000   -1.00000    0.56306      0.700    0    1    0    0    0    0    0    1
  zeroobjective    :          1       0.03       0.01          1          0          0    0.00000   -1.00000    0.56306      0.700    0    1    0    0    0    0    0    1
  dins             :          1       0.03       0.00          1          0          0    0.00000   -1.00000    0.56306      0.700    0    1    0    0    0    0    0    1
  trustregion      :          0       0.00       0.00          0          0          0    0.00000   -1.00000    1.00000      0.900    0    0    0    0    0    0    0    0
Expressions        :   #IntEval  IntEvalTi   #RevProp  RevPropTi    DomReds    Cutoffs  #Estimate  EstimTime  Branching  #Simplify SimplifyTi Simplified
  pow              :          0       0.00          0       0.00          0          0          0       0.00          0          0       0.00          0
  prod             :       6320       0.00          0       0.00          0          0          0       0.00          0       4690       0.00          0
  sum              :          8       0.01          2       0.00          0          0          0       0.00          0          3       0.00          2
  var              :       5485       0.00          0       0.00          0          0          0       0.00          0      11154       0.00          0
  varidx           :          0       0.00          0       0.00          0          0          0       0.00          0          0       0.00          0
LP                 :       Time      Calls Iterations  Iter/call   Iter/sec  Time-0-It Calls-0-It    ItLimit
  primal LP        :     108.74       7483          0       0.00       0.00     108.74       7483
  dual LP          :    2194.48     123878    9927532      89.45    4523.87       6.38      12889
  lex dual LP      :       0.00          0          0       0.00          -
  barrier LP       :       0.00          0          0       0.00          -       0.00          0
  resolve instable :       0.00          0          0       0.00          -
  diving/probing LP:     326.21      13006    2696280     207.31    8265.47
  strong branching :      26.20       2065     198562      96.16    7578.70          -          -         39
    (at root node) :          -         19       8508     447.79          -
  conflict analysis:       4.03       2117      20866       9.86    5177.67
NLP relaxation     :
  solve time       :       7.11 (9 calls)
  convexity        :  nonconvex (4 linear rows, 0 convex ineq., 0 nonconvex ineq., 1530 nonlinear eq. or two-sided ineq.)
NLP Solvers        :  #Problems  ProblemTi    #Solves  SolveTime      #Iter  Time/Iter      #Okay #TimeLimit #IterLimit #LObjLimit #Interrupt  #NumError #EvalError  #OutOfMem #LicenseEr #OtherTerm   #GlobOpt    #LocOpt  #Feasible #LocInfeas #GlobInfea #Unbounded   #Unknown
  ipopt            :         12       4.21         24      62.73       1184       0.05         24          0          0          0          0          0          0          0          0          0          0          0          0         15          0          0          9
B&B Tree           :
  number of runs   :          1
  nodes            :      93295 (54361 internal, 38934 leaves)
  feasible leaves  :         19
  infeas. leaves   :          2
  objective leaves :      38912
  nodes (total)    :      93295 (54361 internal, 38934 leaves)
  nodes left       :      15427
  max depth        :         56
  max depth (total):         56
  backtracks       :      19112 (20.5%)
  early backtracks :          0 (0.0%)
  nodes exc. ref.  :          0 (0.0%)
  delayed cutoffs  :          1
  repropagations   :       1721 (55 domain reductions, 0 cutoffs)
  avg switch length:       4.23
  switching time   :     126.42
Estim. Tree Size   :     186592
Estimation Tree    : 108723 nodes (93296 visited, 54361 internal, 38935 leaves, 15427 open), weight: 0.0000 completed 0.0921
Estimations        :      estim      value      trend resolution     smooth
  wbe              : 33028238462          -          -          -          -
  tree-profile     :         -1          -          -          -          -
  gap              :     626418    0.77154    0.00005         64     623583
  tree-weight      :     186592    0.00000    0.00000         64     186374
  leaf-frequency   :    2426356    0.41732    0.00000         64    2688385
  ssg              :    2009693    0.85457   -0.00006         64    2011134
  open-nodes       :     186592 15427.00000   12.53303         64     186374
Root Node          :
  First LP value   : -1.00000000000000e+00
  First LP Iters   :       1020 (25500.00 Iter/sec)
  First LP Time    :       0.04
  Final Dual Bound : -9.07060349288818e-01
  Final Root Iters :       6076
  Root LP Estimate : -4.60015488323271e-01
Solution           :
  Solutions found  :         49 (39 improvements)
  First Solution   : +1.00000000000000e+05   (in run 1, after 0 nodes, 0.03 seconds, depth 0, found by <trivial>)
  Gap First Sol.   :   infinite
  Gap Last Sol.    :      35.31 %
  Primal Bound     : -5.75316455696202e-01   (in run 1, after 34288 nodes, 1415.82 seconds, depth 39, found by <relaxation>)
  Dual Bound       : -7.45675105485233e-01
  Gap              :      29.61 %
Integrals          :      Total       Avg%
  primal-dual      :   96035.71      26.68
  primal-ref       :          -          - (not evaluated)
  dual-ref         :          -          - (not evaluated)
